c Generated map
c Size: 9 * 9, weights in range: 1 to 10, walls: True, with ratio 0.05
c dim 4 of 8
c
p sp 81 130
c graph contains 81 nodes and 130 arcs
c
a 1 10 2
a 10 1 2
a 1 2 4
a 2 1 4
a 2 11 8
a 11 2 8
a 2 3 2
a 3 2 2
a 3 12 6
a 12 3 6
a 5 14 1
a 14 5 1
a 5 6 7
a 6 5 7
a 6 15 10
a 15 6 10
a 8 17 9
a 17 8 9
a 8 9 4
a 9 8 4
a 9 18 10
a 18 9 10
a 10 19 5
a 19 10 5
a 10 11 4
a 11 10 4
a 11 20 7
a 20 11 7
a 11 12 6
a 12 11 6
a 12 21 9
a 21 12 9
a 12 13 10
a 13 12 10
a 13 22 1
a 22 13 1
a 13 14 7
a 14 13 7
a 14 23 10
a 23 14 10
a 14 15 9
a 15 14 9
a 15 24 3
a 24 15 3
a 15 16 2
a 16 15 2
a 16 25 10
a 25 16 10
a 16 17 9
a 17 16 9
a 17 26 4
a 26 17 4
a 17 18 5
a 18 17 5
a 18 27 5
a 27 18 5
a 19 28 9
a 28 19 9
a 19 20 9
a 20 19 9
a 20 29 5
a 29 20 5
a 20 21 7
a 21 20 7
a 21 30 4
a 30 21 4
a 21 22 7
a 22 21 7
a 22 31 7
a 31 22 7
a 22 23 10
a 23 22 10
a 23 24 7
a 24 23 7
a 24 33 9
a 33 24 9
a 24 25 9
a 25 24 9
a 25 34 8
a 34 25 8
a 25 26 10
a 26 25 10
a 26 35 9
a 35 26 9
a 26 27 6
a 27 26 6
a 27 36 5
a 36 27 5
a 28 37 2
a 37 28 2
a 28 29 3
a 29 28 3
a 29 38 1
a 38 29 1
a 29 30 4
a 30 29 4
a 30 39 5
a 39 30 5
a 30 31 10
a 31 30 10
a 31 40 9
a 40 31 9
a 33 42 5
a 42 33 5
a 33 34 7
a 34 33 7
a 34 43 4
a 43 34 4
a 34 35 7
a 35 34 7
a 35 44 3
a 44 35 3
a 35 36 5
a 36 35 5
a 36 45 5
a 45 36 5
a 37 46 3
a 46 37 3
a 37 38 6
a 38 37 6
a 38 47 1
a 47 38 1
a 38 39 2
a 39 38 2
a 39 48 4
a 48 39 4
a 39 40 7
a 40 39 7
a 40 49 1
a 49 40 1
a 40 41 2
a 41 40 2
a 41 50 6
a 50 41 6
a 41 42 8
a 42 41 8
a 42 51 7
a 51 42 7
a 42 43 2
a 43 42 2
a 43 52 3
a 52 43 3
a 43 44 2
a 44 43 2
a 44 53 9
a 53 44 9
a 44 45 10
a 45 44 10
a 45 54 7
a 54 45 7
a 46 55 3
a 55 46 3
a 46 47 6
a 47 46 6
a 47 56 5
a 56 47 5
a 47 48 10
a 48 47 10
a 48 57 5
a 57 48 5
a 48 49 3
a 49 48 3
a 49 58 9
a 58 49 9
a 49 50 10
a 50 49 10
a 50 59 8
a 59 50 8
a 50 51 4
a 51 50 4
a 51 60 8
a 60 51 8
a 51 52 9
a 52 51 9
a 52 61 6
a 61 52 6
a 52 53 9
a 53 52 9
a 53 62 2
a 62 53 2
a 53 54 4
a 54 53 4
a 54 63 1
a 63 54 1
a 55 64 2
a 64 55 2
a 55 56 5
a 56 55 5
a 56 65 10
a 65 56 10
a 56 57 3
a 57 56 3
a 57 66 3
a 66 57 3
a 57 58 10
a 58 57 10
a 58 67 1
a 67 58 1
a 58 59 3
a 59 58 3
a 59 68 8
a 68 59 8
a 59 60 6
a 60 59 6
a 60 69 1
a 69 60 1
a 60 61 7
a 61 60 7
a 61 70 7
a 70 61 7
a 61 62 4
a 62 61 4
a 62 63 8
a 63 62 8
a 63 72 5
a 72 63 5
a 64 73 1
a 73 64 1
a 64 65 7
a 65 64 7
a 65 74 2
a 74 65 2
a 65 66 4
a 66 65 4
a 66 75 10
a 75 66 10
a 66 67 9
a 67 66 9
a 67 76 1
a 76 67 1
a 67 68 2
a 68 67 2
a 68 77 7
a 77 68 7
a 68 69 10
a 69 68 10
a 69 78 9
a 78 69 9
a 69 70 9
a 70 69 9
a 70 79 4
a 79 70 4
a 72 81 6
a 81 72 6
a 73 74 2
a 74 73 2
a 74 75 2
a 75 74 2
a 75 76 10
a 76 75 10
a 76 77 5
a 77 76 5
a 77 78 4
a 78 77 4
a 78 79 2
a 79 78 2
a 79 80 7
a 80 79 7
a 80 81 8
a 81 80 8
